max: 8442.97 FZ1_1_IC5 + 10704.52 FZ1_1_IC6 + 11825.8 FZ1_1_IC7 + 11654.1 FZ1_1_IC8 + 8442.97 FZ1_2_IC5 + 10704.52 FZ1_2_IC6 + 11825.8 FZ1_2_IC7 + 11654.1 FZ1_2_IC8 + 8442.97 FZ1_3_IC5 + 10704.52 FZ1_3_IC6 + 11825.8 FZ1_3_IC7 + 11654.1 FZ1_3_IC8 + 8442.97 FZ1_4_IC5 + 10704.52 FZ1_4_IC6 + 11825.8 FZ1_4_IC7 + 11654.1 FZ1_4_IC8 + 8442.97 FZ1_6_IC5 + 10704.52 FZ1_6_IC6 + 11825.8 FZ1_6_IC7 + 11654.1 FZ1_6_IC8 + 8442.97 FZ1_7_IC5 + 10704.52 FZ1_7_IC6 + 11825.8 FZ1_7_IC7 + 11654.1 FZ1_7_IC8 + 8442.97 FZ1_8_IC5 + 10704.52 FZ1_8_IC6 + 11825.8 FZ1_8_IC7 + 11654.1 FZ1_8_IC8 + 8442.97 FZ2_10_IC5 + 10704.52 FZ2_10_IC6 + 11825.8 FZ2_10_IC7 + 11654.1 FZ2_10_IC8 + 8442.97 FZ2_11_IC5 + 10704.52 FZ2_11_IC6 + 11825.8 FZ2_11_IC7 + 11654.1 FZ2_11_IC8 + 8442.97 FZ2_12_IC5 + 10704.52 FZ2_12_IC6 + 11825.8 FZ2_12_IC7 + 11654.1 FZ2_12_IC8 + 8442.97 FZ2_13_IC5 + 10704.52 FZ2_13_IC6 + 11825.8 FZ2_13_IC7 + 11654.1 FZ2_13_IC8 + 8442.97 FZ2_14_IC5 + 10704.52 FZ2_14_IC6 + 11825.8 FZ2_14_IC7 + 11654.1 FZ2_14_IC8 + 8442.97 FZ2_15_IC5 + 10704.52 FZ2_15_IC6 + 11825.8 FZ2_15_IC7 + 11654.1 FZ2_15_IC8 + 9818.87 FZ6_01_IC5 + 12156.13 FZ6_01_IC6 + 13301.48 FZ6_01_IC7 + 12633.47 FZ6_01_IC8 + 9818.87 FZ6_02_IC5 + 12156.13 FZ6_02_IC6 + 13301.48 FZ6_02_IC7 + 12633.47 FZ6_02_IC8 + 9818.87 FZ6_03_IC5 + 12156.13 FZ6_03_IC6 + 13301.48 FZ6_03_IC7 + 12633.47 FZ6_03_IC8 + 9818.87 FZ6_04_IC5 + 12156.13 FZ6_04_IC6 + 13301.48 FZ6_04_IC7 + 12633.47 FZ6_04_IC8 + 9818.87 FZ6_05_IC5 + 12156.13 FZ6_05_IC6 + 13301.48 FZ6_05_IC7 + 12633.47 FZ6_05_IC8 + 9818.87 FZ6_06_IC5 + 12156.13 FZ6_06_IC6 + 13301.48 FZ6_06_IC7 + 12633.47 FZ6_06_IC8 + 9818.87 FZ6_07_IC5 + 12156.13 FZ6_07_IC6 + 13301.48 FZ6_07_IC7 + 12633.47 FZ6_07_IC8 + 9818.87 FZ6_08_IC5 + 12156.13 FZ6_08_IC6 + 13301.48 FZ6_08_IC7 + 12633.47 FZ6_08_IC8 + 9818.87 FZ6_09_IC5 + 12156.13 FZ6_09_IC6 + 13301.48 FZ6_09_IC7 + 12633.47 FZ6_09_IC8 + 9818.87 FZ6_10_IC5 + 12156.13 FZ6_10_IC6 + 13301.48 FZ6_10_IC7 + 12633.47 FZ6_10_IC8 + 9818.87 FZ6_11_IC5 + 12156.13 FZ6_11_IC6 + 13301.48 FZ6_11_IC7 + 12633.47 FZ6_11_IC8 + 9818.87 FZ6_12_IC5 + 12156.13 FZ6_12_IC6 + 13301.48 FZ6_12_IC7 + 12633.47 FZ6_12_IC8 + 9818.87 FZ6_13_IC5 + 12156.13 FZ6_13_IC6 + 13301.48 FZ6_13_IC7 + 12633.47 FZ6_13_IC8 + 9818.87 FZ6_14_IC5 + 12156.13 FZ6_14_IC6 + 13301.48 FZ6_14_IC7 + 12633.47 FZ6_14_IC8 + 1563.47 FZ6_15_IC5 + 3355.79 FZ6_15_IC6 + 4447.41 FZ6_15_IC7 + 4982.12 FZ6_15_IC8 + 1563.47 FZ6_16_IC5 + 3355.79 FZ6_16_IC6 + 4447.41 FZ6_16_IC7 + 4982.12 FZ6_16_IC8 + 1563.47 FZ6_17_IC5 + 3355.79 FZ6_17_IC6 + 4447.41 FZ6_17_IC7 + 4982.12 FZ6_17_IC8 + 1563.47 FZ6_18_IC5 + 3355.79 FZ6_18_IC6 + 4447.41 FZ6_18_IC7 + 4982.12 FZ6_18_IC8 + 1563.47 FZ6_19_IC5 + 3355.79 FZ6_19_IC6 + 4447.41 FZ6_19_IC7 + 4982.12 FZ6_19_IC8;

AREA_FZ1_1: FZ1_1_IC5 + FZ1_1_IC6 + FZ1_1_IC7 + FZ1_1_IC8 = 86.878 ; 
AREA_FZ1_2: FZ1_2_IC5 + FZ1_2_IC6 + FZ1_2_IC7 + FZ1_2_IC8 = 63.246 ; 
AREA_FZ1_3: FZ1_3_IC5 + FZ1_3_IC6 + FZ1_3_IC7 + FZ1_3_IC8 = 45.871 ; 
AREA_FZ1_4: FZ1_4_IC5 + FZ1_4_IC6 + FZ1_4_IC7 + FZ1_4_IC8 = 21.285 ; 
AREA_FZ1_6: FZ1_6_IC5 + FZ1_6_IC6 + FZ1_6_IC7 + FZ1_6_IC8 = 45.344 ; 
AREA_FZ1_7: FZ1_7_IC5 + FZ1_7_IC6 + FZ1_7_IC7 + FZ1_7_IC8 = 55.584 ; 
AREA_FZ1_8: FZ1_8_IC5 + FZ1_8_IC6 + FZ1_8_IC7 + FZ1_8_IC8 = 45.934 ; 
AREA_FZ2_10: FZ2_10_IC5 + FZ2_10_IC6 + FZ2_10_IC7 + FZ2_10_IC8 = 23.972 ; 
AREA_FZ2_11: FZ2_11_IC5 + FZ2_11_IC6 + FZ2_11_IC7 + FZ2_11_IC8 = 29.064 ; 
AREA_FZ2_12: FZ2_12_IC5 + FZ2_12_IC6 + FZ2_12_IC7 + FZ2_12_IC8 = 49.524 ; 
AREA_FZ2_13: FZ2_13_IC5 + FZ2_13_IC6 + FZ2_13_IC7 + FZ2_13_IC8 = 51.218 ; 
AREA_FZ2_14: FZ2_14_IC5 + FZ2_14_IC6 + FZ2_14_IC7 + FZ2_14_IC8 = 51.601 ; 
AREA_FZ2_15: FZ2_15_IC5 + FZ2_15_IC6 + FZ2_15_IC7 + FZ2_15_IC8 = 19.783 ; 
AREA_FZ6_01: FZ6_01_IC5 + FZ6_01_IC6 + FZ6_01_IC7 + FZ6_01_IC8 = 60.051 ; 
AREA_FZ6_02: FZ6_02_IC5 + FZ6_02_IC6 + FZ6_02_IC7 + FZ6_02_IC8 = 54.375 ; 
AREA_FZ6_03: FZ6_03_IC5 + FZ6_03_IC6 + FZ6_03_IC7 + FZ6_03_IC8 = 43.217 ; 
AREA_FZ6_04: FZ6_04_IC5 + FZ6_04_IC6 + FZ6_04_IC7 + FZ6_04_IC8 = 34.489 ; 
AREA_FZ6_05: FZ6_05_IC5 + FZ6_05_IC6 + FZ6_05_IC7 + FZ6_05_IC8 = 32.405 ; 
AREA_FZ6_06: FZ6_06_IC5 + FZ6_06_IC6 + FZ6_06_IC7 + FZ6_06_IC8 = 82.601 ; 
AREA_FZ6_07: FZ6_07_IC5 + FZ6_07_IC6 + FZ6_07_IC7 + FZ6_07_IC8 = 48.755 ; 
AREA_FZ6_08: FZ6_08_IC5 + FZ6_08_IC6 + FZ6_08_IC7 + FZ6_08_IC8 = 43.429 ; 
AREA_FZ6_09: FZ6_09_IC5 + FZ6_09_IC6 + FZ6_09_IC7 + FZ6_09_IC8 = 35.195 ; 
AREA_FZ6_10: FZ6_10_IC5 + FZ6_10_IC6 + FZ6_10_IC7 + FZ6_10_IC8 = 33.777 ; 
AREA_FZ6_11: FZ6_11_IC5 + FZ6_11_IC6 + FZ6_11_IC7 + FZ6_11_IC8 = 33.183 ; 
AREA_FZ6_12: FZ6_12_IC5 + FZ6_12_IC6 + FZ6_12_IC7 + FZ6_12_IC8 = 32.496 ; 
AREA_FZ6_13: FZ6_13_IC5 + FZ6_13_IC6 + FZ6_13_IC7 + FZ6_13_IC8 = 30.848 ; 
AREA_FZ6_14: FZ6_14_IC5 + FZ6_14_IC6 + FZ6_14_IC7 + FZ6_14_IC8 = 29.916 ; 
AREA_FZ6_15: FZ6_15_IC5 + FZ6_15_IC6 + FZ6_15_IC7 + FZ6_15_IC8 = 77.843 ; 
AREA_FZ6_16: FZ6_16_IC5 + FZ6_16_IC6 + FZ6_16_IC7 + FZ6_16_IC8 = 31.506 ; 
AREA_FZ6_17: FZ6_17_IC5 + FZ6_17_IC6 + FZ6_17_IC7 + FZ6_17_IC8 = 28.954 ; 
AREA_FZ6_18: FZ6_18_IC5 + FZ6_18_IC6 + FZ6_18_IC7 + FZ6_18_IC8 = 25.846 ; 
AREA_FZ6_19: FZ6_19_IC5 + FZ6_19_IC6 + FZ6_19_IC7 + FZ6_19_IC8 = 23.213 ;

Prod2022: 213 FZ1_1_IC6 + 213 FZ1_2_IC6 + 213 FZ1_3_IC6 + 213 FZ1_4_IC6 + 213 FZ1_6_IC6 + 213 FZ1_7_IC6 + 213 FZ1_8_IC6 + 158 FZ2_10_IC5 + 158 FZ2_11_IC5 + 158 FZ2_12_IC5 + 158 FZ2_13_IC5 + 158 FZ2_14_IC5 + 158 FZ2_15_IC5 + 170 FZ6_05_IC5 + 170 FZ6_06_IC5 + 170 FZ6_13_IC5 + 170 FZ6_14_IC5 >= 8000 ; 
Prod2023: 267 FZ1_1_IC7 + 267 FZ1_2_IC7 + 267 FZ1_3_IC7 + 267 FZ1_4_IC7 + 267 FZ1_6_IC7 + 267 FZ1_7_IC7 + 267 FZ1_8_IC7 + 213 FZ2_10_IC6 + 213 FZ2_11_IC6 + 213 FZ2_12_IC6 + 213 FZ2_13_IC6 + 213 FZ2_14_IC6 + 213 FZ2_15_IC6 + 229 FZ6_05_IC6 + 229 FZ6_06_IC6 + 229 FZ6_13_IC6 + 229 FZ6_14_IC6 + 98 FZ6_15_IC5 + 98 FZ6_16_IC5 + 98 FZ6_17_IC5 + 98 FZ6_18_IC5 + 98 FZ6_19_IC5 >= 8000 ; 
Prod2024: 310 FZ1_1_IC8 + 310 FZ1_2_IC8 + 310 FZ1_3_IC8 + 310 FZ1_4_IC8 + 310 FZ1_6_IC8 + 310 FZ1_7_IC8 + 310 FZ1_8_IC8 + 267 FZ2_10_IC7 + 267 FZ2_11_IC7 + 267 FZ2_12_IC7 + 267 FZ2_13_IC7 + 267 FZ2_14_IC7 + 267 FZ2_15_IC7 + 287 FZ6_05_IC7 + 287 FZ6_06_IC7 + 170 FZ6_07_IC5 + 170 FZ6_08_IC5 + 170 FZ6_09_IC5 + 170 FZ6_10_IC5 + 170 FZ6_11_IC5 + 170 FZ6_12_IC5 + 287 FZ6_13_IC7 + 287 FZ6_14_IC7 + 132 FZ6_15_IC6 + 132 FZ6_16_IC6 + 132 FZ6_17_IC6 + 132 FZ6_18_IC6 + 132 FZ6_19_IC6 >= 8000 ; 
Prod2025: 310 FZ2_10_IC8 + 310 FZ2_11_IC8 + 310 FZ2_12_IC8 + 310 FZ2_13_IC8 + 310 FZ2_14_IC8 + 310 FZ2_15_IC8 + 170 FZ6_01_IC5 + 170 FZ6_02_IC5 + 170 FZ6_03_IC5 + 170 FZ6_04_IC5 + 326 FZ6_05_IC8 + 326 FZ6_06_IC8 + 229 FZ6_07_IC6 + 229 FZ6_08_IC6 + 229 FZ6_09_IC6 + 229 FZ6_10_IC6 + 229 FZ6_11_IC6 + 229 FZ6_12_IC6 + 326 FZ6_13_IC8 + 326 FZ6_14_IC8 + 167 FZ6_15_IC7 + 167 FZ6_16_IC7 + 167 FZ6_17_IC7 + 167 FZ6_18_IC7 + 167 FZ6_19_IC7 >= 8000 ; 
Prod2026: 158 FZ1_1_IC5 + 158 FZ1_2_IC5 + 158 FZ1_3_IC5 + 158 FZ1_4_IC5 + 158 FZ1_6_IC5 + 158 FZ1_7_IC5 + 158 FZ1_8_IC5 + 229 FZ6_01_IC6 + 229 FZ6_02_IC6 + 229 FZ6_03_IC6 + 229 FZ6_04_IC6 + 287 FZ6_07_IC7 + 287 FZ6_08_IC7 + 287 FZ6_09_IC7 + 287 FZ6_10_IC7 + 287 FZ6_11_IC7 + 287 FZ6_12_IC7 + 201 FZ6_15_IC8 + 201 FZ6_16_IC8 + 201 FZ6_17_IC8 + 201 FZ6_18_IC8 + 201 FZ6_19_IC8 >= 8000 ; 
Prod2027: 158 FZ2_10_IC5 + 158 FZ2_11_IC5 + 158 FZ2_12_IC5 + 158 FZ2_13_IC5 + 158 FZ2_14_IC5 + 158 FZ2_15_IC5 + 287 FZ6_01_IC7 + 287 FZ6_02_IC7 + 287 FZ6_03_IC7 + 287 FZ6_04_IC7 + 170 FZ6_05_IC5 + 170 FZ6_06_IC5 + 326 FZ6_07_IC8 + 326 FZ6_08_IC8 + 326 FZ6_09_IC8 + 326 FZ6_10_IC8 + 326 FZ6_11_IC8 + 326 FZ6_12_IC8 + 170 FZ6_13_IC5 + 170 FZ6_14_IC5 >= 8000 ; 
Prod2028: 213 FZ1_1_IC6 + 213 FZ1_2_IC6 + 213 FZ1_3_IC6 + 213 FZ1_4_IC6 + 213 FZ1_6_IC6 + 213 FZ1_7_IC6 + 213 FZ1_8_IC6 + 326 FZ6_01_IC8 + 326 FZ6_02_IC8 + 326 FZ6_03_IC8 + 326 FZ6_04_IC8 + 98 FZ6_15_IC5 + 98 FZ6_16_IC5 + 98 FZ6_17_IC5 + 98 FZ6_18_IC5 + 98 FZ6_19_IC5 >= 8000 ; 
Prod2029: 213 FZ2_10_IC6 + 213 FZ2_11_IC6 + 213 FZ2_12_IC6 + 213 FZ2_13_IC6 + 213 FZ2_14_IC6 + 213 FZ2_15_IC6 + 229 FZ6_05_IC6 + 229 FZ6_06_IC6 + 170 FZ6_07_IC5 + 170 FZ6_08_IC5 + 170 FZ6_09_IC5 + 170 FZ6_10_IC5 + 170 FZ6_11_IC5 + 170 FZ6_12_IC5 + 229 FZ6_13_IC6 + 229 FZ6_14_IC6 >= 8000 ; 
Prod2030: 267 FZ1_1_IC7 + 267 FZ1_2_IC7 + 267 FZ1_3_IC7 + 267 FZ1_4_IC7 + 267 FZ1_6_IC7 + 267 FZ1_7_IC7 + 267 FZ1_8_IC7 + 170 FZ6_01_IC5 + 170 FZ6_02_IC5 + 170 FZ6_03_IC5 + 170 FZ6_04_IC5 + 132 FZ6_15_IC6 + 132 FZ6_16_IC6 + 132 FZ6_17_IC6 + 132 FZ6_18_IC6 + 132 FZ6_19_IC6 >= 8000 ; 
Prod2031: 158 FZ1_1_IC5 + 158 FZ1_2_IC5 + 158 FZ1_3_IC5 + 158 FZ1_4_IC5 + 158 FZ1_6_IC5 + 158 FZ1_7_IC5 + 158 FZ1_8_IC5 + 267 FZ2_10_IC7 + 267 FZ2_11_IC7 + 267 FZ2_12_IC7 + 267 FZ2_13_IC7 + 267 FZ2_14_IC7 + 267 FZ2_15_IC7 + 287 FZ6_05_IC7 + 287 FZ6_06_IC7 + 229 FZ6_07_IC6 + 229 FZ6_08_IC6 + 229 FZ6_09_IC6 + 229 FZ6_10_IC6 + 229 FZ6_11_IC6 + 229 FZ6_12_IC6 + 287 FZ6_13_IC7 + 287 FZ6_14_IC7 >= 8000 ;